c File: flat75_3_0.col
c
c SOURCE: Joseph Culberson (joe@cs.ualberta.ca)
c DESCRIPTION: Quasi-random coloring problem
c              generated with flatness = 0
c                             probability = 0.096
c                             known coloring = 3
c                             random seed = 1015
c              Creation Date:  Wed Feb 24 10:41:50 1999
c Maximum degree = 8 Minimum degree = 1
c COLOR VERIFICATION: Using the permuted order
c under simple greedy yields the specified
c coloring number
c Color = 3 specified partitions = 3
c p edge 75 180
c cnf created by edge2cnf
p cnf 225 840
-1 -2 0
-1 -3 0
-2 -3 0
1 2 3 0
-4 -5 0
-4 -6 0
-5 -6 0
4 5 6 0
-7 -8 0
-7 -9 0
-8 -9 0
7 8 9 0
-10 -11 0
-10 -12 0
-11 -12 0
10 11 12 0
-13 -14 0
-13 -15 0
-14 -15 0
13 14 15 0
-16 -17 0
-16 -18 0
-17 -18 0
16 17 18 0
-19 -20 0
-19 -21 0
-20 -21 0
19 20 21 0
-22 -23 0
-22 -24 0
-23 -24 0
22 23 24 0
-25 -26 0
-25 -27 0
-26 -27 0
25 26 27 0
-28 -29 0
-28 -30 0
-29 -30 0
28 29 30 0
-31 -32 0
-31 -33 0
-32 -33 0
31 32 33 0
-34 -35 0
-34 -36 0
-35 -36 0
34 35 36 0
-37 -38 0
-37 -39 0
-38 -39 0
37 38 39 0
-40 -41 0
-40 -42 0
-41 -42 0
40 41 42 0
-43 -44 0
-43 -45 0
-44 -45 0
43 44 45 0
-46 -47 0
-46 -48 0
-47 -48 0
46 47 48 0
-49 -50 0
-49 -51 0
-50 -51 0
49 50 51 0
-52 -53 0
-52 -54 0
-53 -54 0
52 53 54 0
-55 -56 0
-55 -57 0
-56 -57 0
55 56 57 0
-58 -59 0
-58 -60 0
-59 -60 0
58 59 60 0
-61 -62 0
-61 -63 0
-62 -63 0
61 62 63 0
-64 -65 0
-64 -66 0
-65 -66 0
64 65 66 0
-67 -68 0
-67 -69 0
-68 -69 0
67 68 69 0
-70 -71 0
-70 -72 0
-71 -72 0
70 71 72 0
-73 -74 0
-73 -75 0
-74 -75 0
73 74 75 0
-76 -77 0
-76 -78 0
-77 -78 0
76 77 78 0
-79 -80 0
-79 -81 0
-80 -81 0
79 80 81 0
-82 -83 0
-82 -84 0
-83 -84 0
82 83 84 0
-85 -86 0
-85 -87 0
-86 -87 0
85 86 87 0
-88 -89 0
-88 -90 0
-89 -90 0
88 89 90 0
-91 -92 0
-91 -93 0
-92 -93 0
91 92 93 0
-94 -95 0
-94 -96 0
-95 -96 0
94 95 96 0
-97 -98 0
-97 -99 0
-98 -99 0
97 98 99 0
-100 -101 0
-100 -102 0
-101 -102 0
100 101 102 0
-103 -104 0
-103 -105 0
-104 -105 0
103 104 105 0
-106 -107 0
-106 -108 0
-107 -108 0
106 107 108 0
-109 -110 0
-109 -111 0
-110 -111 0
109 110 111 0
-112 -113 0
-112 -114 0
-113 -114 0
112 113 114 0
-115 -116 0
-115 -117 0
-116 -117 0
115 116 117 0
-118 -119 0
-118 -120 0
-119 -120 0
118 119 120 0
-121 -122 0
-121 -123 0
-122 -123 0
121 122 123 0
-124 -125 0
-124 -126 0
-125 -126 0
124 125 126 0
-127 -128 0
-127 -129 0
-128 -129 0
127 128 129 0
-130 -131 0
-130 -132 0
-131 -132 0
130 131 132 0
-133 -134 0
-133 -135 0
-134 -135 0
133 134 135 0
-136 -137 0
-136 -138 0
-137 -138 0
136 137 138 0
-139 -140 0
-139 -141 0
-140 -141 0
139 140 141 0
-142 -143 0
-142 -144 0
-143 -144 0
142 143 144 0
-145 -146 0
-145 -147 0
-146 -147 0
145 146 147 0
-148 -149 0
-148 -150 0
-149 -150 0
148 149 150 0
-151 -152 0
-151 -153 0
-152 -153 0
151 152 153 0
-154 -155 0
-154 -156 0
-155 -156 0
154 155 156 0
-157 -158 0
-157 -159 0
-158 -159 0
157 158 159 0
-160 -161 0
-160 -162 0
-161 -162 0
160 161 162 0
-163 -164 0
-163 -165 0
-164 -165 0
163 164 165 0
-166 -167 0
-166 -168 0
-167 -168 0
166 167 168 0
-169 -170 0
-169 -171 0
-170 -171 0
169 170 171 0
-172 -173 0
-172 -174 0
-173 -174 0
172 173 174 0
-175 -176 0
-175 -177 0
-176 -177 0
175 176 177 0
-178 -179 0
-178 -180 0
-179 -180 0
178 179 180 0
-181 -182 0
-181 -183 0
-182 -183 0
181 182 183 0
-184 -185 0
-184 -186 0
-185 -186 0
184 185 186 0
-187 -188 0
-187 -189 0
-188 -189 0
187 188 189 0
-190 -191 0
-190 -192 0
-191 -192 0
190 191 192 0
-193 -194 0
-193 -195 0
-194 -195 0
193 194 195 0
-196 -197 0
-196 -198 0
-197 -198 0
196 197 198 0
-199 -200 0
-199 -201 0
-200 -201 0
199 200 201 0
-202 -203 0
-202 -204 0
-203 -204 0
202 203 204 0
-205 -206 0
-205 -207 0
-206 -207 0
205 206 207 0
-208 -209 0
-208 -210 0
-209 -210 0
208 209 210 0
-211 -212 0
-211 -213 0
-212 -213 0
211 212 213 0
-214 -215 0
-214 -216 0
-215 -216 0
214 215 216 0
-217 -218 0
-217 -219 0
-218 -219 0
217 218 219 0
-220 -221 0
-220 -222 0
-221 -222 0
220 221 222 0
-223 -224 0
-223 -225 0
-224 -225 0
223 224 225 0
-34 -1 0
-35 -2 0
-36 -3 0
-55 -1 0
-56 -2 0
-57 -3 0
-67 -1 0
-68 -2 0
-69 -3 0
-97 -1 0
-98 -2 0
-99 -3 0
-118 -1 0
-119 -2 0
-120 -3 0
-145 -1 0
-146 -2 0
-147 -3 0
-175 -1 0
-176 -2 0
-177 -3 0
-214 -1 0
-215 -2 0
-216 -3 0
-19 -4 0
-20 -5 0
-21 -6 0
-52 -4 0
-53 -5 0
-54 -6 0
-103 -4 0
-104 -5 0
-105 -6 0
-118 -4 0
-119 -5 0
-120 -6 0
-130 -4 0
-131 -5 0
-132 -6 0
-181 -4 0
-182 -5 0
-183 -6 0
-16 -7 0
-17 -8 0
-18 -9 0
-22 -7 0
-23 -8 0
-24 -9 0
-40 -7 0
-41 -8 0
-42 -9 0
-61 -7 0
-62 -8 0
-63 -9 0
-166 -7 0
-167 -8 0
-168 -9 0
-52 -10 0
-53 -11 0
-54 -12 0
-55 -10 0
-56 -11 0
-57 -12 0
-112 -10 0
-113 -11 0
-114 -12 0
-82 -13 0
-83 -14 0
-84 -15 0
-124 -13 0
-125 -14 0
-126 -15 0
-184 -13 0
-185 -14 0
-186 -15 0
-130 -16 0
-131 -17 0
-132 -18 0
-43 -19 0
-44 -20 0
-45 -21 0
-73 -19 0
-74 -20 0
-75 -21 0
-97 -19 0
-98 -20 0
-99 -21 0
-133 -19 0
-134 -20 0
-135 -21 0
-193 -19 0
-194 -20 0
-195 -21 0
-223 -19 0
-224 -20 0
-225 -21 0
-52 -22 0
-53 -23 0
-54 -24 0
-55 -22 0
-56 -23 0
-57 -24 0
-67 -22 0
-68 -23 0
-69 -24 0
-103 -22 0
-104 -23 0
-105 -24 0
-109 -22 0
-110 -23 0
-111 -24 0
-124 -22 0
-125 -23 0
-126 -24 0
-61 -25 0
-62 -26 0
-63 -27 0
-79 -25 0
-80 -26 0
-81 -27 0
-97 -25 0
-98 -26 0
-99 -27 0
-127 -25 0
-128 -26 0
-129 -27 0
-139 -25 0
-140 -26 0
-141 -27 0
-154 -25 0
-155 -26 0
-156 -27 0
-73 -28 0
-74 -29 0
-75 -30 0
-139 -28 0
-140 -29 0
-141 -30 0
-145 -28 0
-146 -29 0
-147 -30 0
-166 -28 0
-167 -29 0
-168 -30 0
-205 -28 0
-206 -29 0
-207 -30 0
-193 -31 0
-194 -32 0
-195 -33 0
-211 -31 0
-212 -32 0
-213 -33 0
-46 -34 0
-47 -35 0
-48 -36 0
-70 -34 0
-71 -35 0
-72 -36 0
-106 -34 0
-107 -35 0
-108 -36 0
-112 -34 0
-113 -35 0
-114 -36 0
-130 -34 0
-131 -35 0
-132 -36 0
-139 -34 0
-140 -35 0
-141 -36 0
-166 -34 0
-167 -35 0
-168 -36 0
-172 -37 0
-173 -38 0
-174 -39 0
-187 -37 0
-188 -38 0
-189 -39 0
-202 -37 0
-203 -38 0
-204 -39 0
-52 -40 0
-53 -41 0
-54 -42 0
-124 -40 0
-125 -41 0
-126 -42 0
-151 -40 0
-152 -41 0
-153 -42 0
-67 -43 0
-68 -44 0
-69 -45 0
-109 -43 0
-110 -44 0
-111 -45 0
-154 -43 0
-155 -44 0
-156 -45 0
-163 -43 0
-164 -44 0
-165 -45 0
-217 -43 0
-218 -44 0
-219 -45 0
-223 -43 0
-224 -44 0
-225 -45 0
-58 -46 0
-59 -47 0
-60 -48 0
-157 -46 0
-158 -47 0
-159 -48 0
-55 -49 0
-56 -50 0
-57 -51 0
-64 -49 0
-65 -50 0
-66 -51 0
-88 -49 0
-89 -50 0
-90 -51 0
-130 -49 0
-131 -50 0
-132 -51 0
-184 -49 0
-185 -50 0
-186 -51 0
-223 -49 0
-224 -50 0
-225 -51 0
-136 -52 0
-137 -53 0
-138 -54 0
-223 -52 0
-224 -53 0
-225 -54 0
-133 -55 0
-134 -56 0
-135 -57 0
-154 -55 0
-155 -56 0
-156 -57 0
-202 -55 0
-203 -56 0
-204 -57 0
-220 -55 0
-221 -56 0
-222 -57 0
-61 -58 0
-62 -59 0
-63 -60 0
-73 -58 0
-74 -59 0
-75 -60 0
-148 -58 0
-149 -59 0
-150 -60 0
-190 -58 0
-191 -59 0
-192 -60 0
-67 -61 0
-68 -62 0
-69 -63 0
-70 -61 0
-71 -62 0
-72 -63 0
-115 -61 0
-116 -62 0
-117 -63 0
-157 -61 0
-158 -62 0
-159 -63 0
-220 -61 0
-221 -62 0
-222 -63 0
-79 -64 0
-80 -65 0
-81 -66 0
-136 -64 0
-137 -65 0
-138 -66 0
-169 -64 0
-170 -65 0
-171 -66 0
-205 -64 0
-206 -65 0
-207 -66 0
-100 -67 0
-101 -68 0
-102 -69 0
-121 -67 0
-122 -68 0
-123 -69 0
-139 -67 0
-140 -68 0
-141 -69 0
-157 -67 0
-158 -68 0
-159 -69 0
-163 -70 0
-164 -71 0
-165 -72 0
-175 -70 0
-176 -71 0
-177 -72 0
-199 -70 0
-200 -71 0
-201 -72 0
-91 -73 0
-92 -74 0
-93 -75 0
-151 -73 0
-152 -74 0
-153 -75 0
-181 -73 0
-182 -74 0
-183 -75 0
-208 -73 0
-209 -74 0
-210 -75 0
-160 -76 0
-161 -77 0
-162 -78 0
-181 -76 0
-182 -77 0
-183 -78 0
-85 -79 0
-86 -80 0
-87 -81 0
-100 -79 0
-101 -80 0
-102 -81 0
-106 -79 0
-107 -80 0
-108 -81 0
-115 -79 0
-116 -80 0
-117 -81 0
-184 -79 0
-185 -80 0
-186 -81 0
-193 -79 0
-194 -80 0
-195 -81 0
-97 -82 0
-98 -83 0
-99 -84 0
-133 -82 0
-134 -83 0
-135 -84 0
-187 -82 0
-188 -83 0
-189 -84 0
-151 -85 0
-152 -86 0
-153 -87 0
-190 -85 0
-191 -86 0
-192 -87 0
-202 -85 0
-203 -86 0
-204 -87 0
-118 -88 0
-119 -89 0
-120 -90 0
-139 -88 0
-140 -89 0
-141 -90 0
-187 -88 0
-188 -89 0
-189 -90 0
-199 -88 0
-200 -89 0
-201 -90 0
-148 -91 0
-149 -92 0
-150 -93 0
-211 -91 0
-212 -92 0
-213 -93 0
-223 -91 0
-224 -92 0
-225 -93 0
-199 -94 0
-200 -95 0
-201 -96 0
-106 -97 0
-107 -98 0
-108 -99 0
-115 -100 0
-116 -101 0
-117 -102 0
-118 -100 0
-119 -101 0
-120 -102 0
-196 -100 0
-197 -101 0
-198 -102 0
-214 -100 0
-215 -101 0
-216 -102 0
-160 -106 0
-161 -107 0
-162 -108 0
-166 -106 0
-167 -107 0
-168 -108 0
-193 -106 0
-194 -107 0
-195 -108 0
-211 -106 0
-212 -107 0
-213 -108 0
-163 -109 0
-164 -110 0
-165 -111 0
-124 -115 0
-125 -116 0
-126 -117 0
-127 -115 0
-128 -116 0
-129 -117 0
-136 -118 0
-137 -119 0
-138 -120 0
-154 -118 0
-155 -119 0
-156 -120 0
-166 -121 0
-167 -122 0
-168 -123 0
-193 -121 0
-194 -122 0
-195 -123 0
-214 -121 0
-215 -122 0
-216 -123 0
-151 -124 0
-152 -125 0
-153 -126 0
-208 -124 0
-209 -125 0
-210 -126 0
-190 -130 0
-191 -131 0
-192 -132 0
-205 -133 0
-206 -134 0
-207 -135 0
-172 -136 0
-173 -137 0
-174 -138 0
-220 -136 0
-221 -137 0
-222 -138 0
-148 -139 0
-149 -140 0
-150 -141 0
-169 -139 0
-170 -140 0
-171 -141 0
-211 -139 0
-212 -140 0
-213 -141 0
-181 -142 0
-182 -143 0
-183 -144 0
-157 -145 0
-158 -146 0
-159 -147 0
-160 -145 0
-161 -146 0
-162 -147 0
-184 -145 0
-185 -146 0
-186 -147 0
-187 -148 0
-188 -149 0
-189 -150 0
-214 -151 0
-215 -152 0
-216 -153 0
-196 -154 0
-197 -155 0
-198 -156 0
-223 -154 0
-224 -155 0
-225 -156 0
-160 -157 0
-161 -158 0
-162 -159 0
-175 -157 0
-176 -158 0
-177 -159 0
-217 -157 0
-218 -158 0
-219 -159 0
-163 -160 0
-164 -161 0
-165 -162 0
-202 -160 0
-203 -161 0
-204 -162 0
-169 -163 0
-170 -164 0
-171 -165 0
-181 -163 0
-182 -164 0
-183 -165 0
-187 -166 0
-188 -167 0
-189 -168 0
-184 -175 0
-185 -176 0
-186 -177 0
-205 -175 0
-206 -176 0
-207 -177 0
-211 -175 0
-212 -176 0
-213 -177 0
-214 -178 0
-215 -179 0
-216 -180 0
-217 -181 0
-218 -182 0
-219 -183 0
-205 -187 0
-206 -188 0
-207 -189 0
-208 -187 0
-209 -188 0
-210 -189 0
-199 -196 0
-200 -197 0
-201 -198 0
